12 48 9 10
13 17 10 8 17 19 19 19 8 14 19 18 5 17 6 12 9 17 7 10 2 6 9 8 6 15 6 1 1 11 1 8 18 14 19 20 6 1 20 20 5 10 6 17 9 7 15 1 
7.92 10.41 11.81 6.06 8.21 11.45 7.66 9.05 13.78 8.6 14.15 5.47 1.72 8.08 8.94 6.17 2.84 9.21 5.84 8 1.01 3.23 15.7 11.41 7.8 6.48 0.33 7.57 3.99 10.33 9.86 13.66 12.11 5.39 0.25 13.73 1.58 9.09 11.81 0.03 5.16 12.16 5.61 13.58 10.59 2.13 2.9 6.34 
1.26 11.9 12.47 14.1 2.72 0.27 7.8 6.33 12.55 14.92 3.67 3.75 6.41 13.26 6.02 6.72 10.03 14.96 15.76 1.2 8.47 9 9.62 0.44 5.41 4.71 2.58 11.54 15.84 2.42 8.12 3.08 6.79 5.38 3.65 7.42 6.48 6.79 4.14 15.39 1.65 3.36 11.09 6.53 6.31 1.48 10.9 0.38 
15.96 5.85 3.06 10.21 0.92 11.18 9.78 10.59 4.56 7.36 15.1 12.2 13.93 3.31 1.47 14.82 10.24 6.33 15.36 12.57 14.89 14.9 14.9 11.52 2.41 15.24 12.06 3.8 7.77 13.1 9.91 9.7 10.39 0.8 7.4 14.25 8.03 13.39 2.27 13.57 13.82 5.93 0.74 5.99 12.8 5.25 11.58 9.77 
8.29 9.38 5.48 4.57 9.85 10.8 14.81 10.14 7.88 15.75 15.63 11.98 11.06 9.73 2.93 14.97 0.11 11.96 3.74 10.61 8.8 0.82 11.77 15.06 13.98 9.41 9.68 10.16 15.58 13.12 0.95 0.57 8.86 4.77 10.27 13.79 6.04 3.21 12.99 15.35 15.18 10.34 6.05 7.71 11.85 10.32 4.95 10.23 
4.58 3.07 12.87 8.56 12.4 13.69 3.72 13.61 5.39 15.31 6.87 14.49 11.92 3.51 4 9.23 11.74 2.94 15.28 10.43 6.04 14.56 1.21 15.73 0.97 2.87 9.27 11.46 7.36 10.96 0.15 9.08 6.48 7.52 7.62 1.03 10 15.81 5.61 14.05 11.41 2.37 15 7.4 7.97 15.5 14.26 2.65 
12.27 0.66 1.76 14.11 4.63 12.66 7.82 14.59 0.64 14.5 7 11.17 14.42 4.28 9.54 14.05 14.99 4.35 8.17 3.85 4.97 13.29 9.66 4.93 5.01 10.61 4.46 9.4 7.11 15.68 9.66 2.78 3.17 0.59 13.53 12.22 14.35 9.44 6.23 7.74 13.09 12.92 10.45 6.39 1.03 0.12 14.19 15.01 
8.66 2.24 13.18 12.76 14.93 3.61 8.59 1.92 10.99 6.83 15.71 8.92 10.21 10.69 14.22 9.76 10.95 2.58 10.43 14.84 12.35 6.65 3.27 9.47 5.33 8.96 1.26 11.31 1.73 7.06 3.27 15.44 5.27 4.08 12.69 0.39 12.93 12.14 9.9 2.04 9.74 11.18 4.85 5.2 4.22 9.58 1.9 8.67 
11.83 3.21 7.33 3.28 7.48 0.36 6.11 14.59 12.76 13.45 1.13 12.96 7.79 7.11 9.85 8.29 5.81 5.13 13.75 3.21 2.6 13.72 1.99 15.51 14.24 9.95 9.69 7.69 13.74 14.04 0.39 11.7 11.44 15.27 2.44 1.01 14.16 3.76 12.79 15.37 0.72 8.55 14.29 5.1 6.03 6.92 12.47 11.83 
3.17 6.83 2.92 13.88 5.85 7.52 2.42 12.63 9.72 14.73 12.84 11.13 6.11 2.87 13.04 7.05 12.55 10.33 7.07 5.85 10.43 14.83 13.51 8.22 3.28 10.93 10.84 12.27 14.55 8.15 5.04 0.62 2.27 13.92 11.7 4.98 14.66 6.78 9.68 6.44 8.8 1.5 4.25 9.98 0.36 5.19 10.81 8.76 
8 8 8 8 8 8 8 8 8 8 8 8 8 8 8 8 8 8 8 8 8 8 8 8 8 8 8 8 8 8 8 8 8 8 8 8 8 8 8 8 8 8 8 8 8 8 8 8 
11.8 13.81 7.53 8.5 11.57 9.6 5.56 10.9 12.1 13.32 7.99 0.84 1.43 4.29 6.56 7.66 15.65 11.56 11.03 15.88 11.7 7.39 3.7 14.09 1.57 6.26 9.26 13.09 0.34 2.08 2.97 11.23 12.33 12.93 15.21 14.65 8.14 6.98 12.55 7.29 5.66 10.82 0.04 8.78 13.49 9.65 12.06 2.06 
6.14 11.91 7.03 6.31 8.15 13.12 2.65 7.43 3.96 2.5 3.4 9.62 13.92 10.55 3.92 3.7 11.55 0.43 1.6 9.92 3 7.44 0.77 15.37 1.31 14.71 3.36 7.98 14.55 15.08 12.03 14 9.44 14.65 1.28 3.18 15.02 4.21 3.7 10.37 10.91 15.89 3.27 3.26 0.95 0.09 10.59 15.04 
1 1 1 1 1 1 1 1 1 1 1 1 1 1 1 1 1 1 1 1 1 1 1 1 1 1 1 1 1 1 1 1 1 1 1 1 1 1 1 1 1 1 1 1 1 1 1 1 
1 1 1 1 1 1 1 1 1 1 1 1 1 1 1 1 1 1 1 1 1 1 1 1 1 1 1 1 1 1 1 1 1 1 1 1 1 1 1 1 1 1 1 1 1 1 1 1 
1 1 1 1 1 1 1 1 1 1 1 1 1 1 1 1 1 1 1 1 1 1 1 1 1 1 1 1 1 1 1 1 1 1 1 1 1 1 1 1 1 1 1 1 1 1 1 1 
1 1 1 1 1 1 1 1 1 1 1 1 1 1 1 1 1 1 1 1 1 1 1 1 1 1 1 1 1 1 1 1 1 1 1 1 1 1 1 1 1 1 1 1 1 1 1 1 
1 1 1 1 1 1 1 1 1 1 1 1 1 1 1 1 1 1 1 1 1 1 1 1 1 1 1 1 1 1 1 1 1 1 1 1 1 1 1 1 1 1 1 1 1 1 1 1 
1 1 1 1 1 1 1 1 1 1 1 1 1 1 1 1 1 1 1 1 1 1 1 1 1 1 1 1 1 1 1 1 1 1 1 1 1 1 1 1 1 1 1 1 1 1 1 1 
1 1 1 1 1 1 1 1 1 1 1 1 1 1 1 1 1 1 1 1 1 1 1 1 1 1 1 1 1 1 1 1 1 1 1 1 1 1 1 1 1 1 1 1 1 1 1 1 
1 1 1 1 1 1 1 1 1 1 1 1 1 1 1 1 1 1 1 1 1 1 1 1 1 1 1 1 1 1 1 1 1 1 1 1 1 1 1 1 1 1 1 1 1 1 1 1 
1 1 1 1 1 1 1 1 1 1 1 1 1 1 1 1 1 1 1 1 1 1 1 1 1 1 1 1 1 1 1 1 1 1 1 1 1 1 1 1 1 1 1 1 1 1 1 1 
1 1 1 1 1 1 1 1 1 1 1 1 1 1 1 1 1 1 1 1 1 1 1 1 1 1 1 1 1 1 1 1 1 1 1 1 1 1 1 1 1 1 1 1 1 1 1 1 
1 1 1 1 1 1 1 1 1 1 1 1 1 1 1 1 1 1 1 1 1 1 1 1 1 1 1 1 1 1 1 1 1 1 1 1 1 1 1 1 1 1 1 1 1 1 1 1 
1 1 1 1 1 1 1 1 1 1 1 1 1 1 1 1 1 1 1 1 1 1 1 1 1 1 1 1 1 1 1 1 1 1 1 1 1 1 1 1 1 1 1 1 1 1 1 1 
0.01 0.01 0.01 0.01 0.01 0.01 0.01 0.01 0.01 0.01 0.01 0.01 0.01 0.01 0.01 0.01 0.01 0.01 0.01 0.01 0.01 0.01 0.01 0.01 0.01 0.01 0.01 0.01 0.01 0.01 0.01 0.01 0.01 0.01 0.01 0.01 0.01 0.01 0.01 0.01 0.01 0.01 0.01 0.01 0.01 0.01 0.01 0.01 
0.02 0.02 0.02 0.02 0.02 0.02 0.02 0.02 0.02 0.02 0.02 0.02 0.02 0.02 0.02 0.02 0.02 0.02 0.02 0.02 0.02 0.02 0.02 0.02 0.02 0.02 0.02 0.02 0.02 0.02 0.02 0.02 0.02 0.02 0.02 0.02 0.02 0.02 0.02 0.02 0.02 0.02 0.02 0.02 0.02 0.02 0.02 0.02 
0.03 0.03 0.03 0.03 0.03 0.03 0.03 0.03 0.03 0.03 0.03 0.03 0.03 0.03 0.03 0.03 0.03 0.03 0.03 0.03 0.03 0.03 0.03 0.03 0.03 0.03 0.03 0.03 0.03 0.03 0.03 0.03 0.03 0.03 0.03 0.03 0.03 0.03 0.03 0.03 0.03 0.03 0.03 0.03 0.03 0.03 0.03 0.03 
0.04 0.04 0.04 0.04 0.04 0.04 0.04 0.04 0.04 0.04 0.04 0.04 0.04 0.04 0.04 0.04 0.04 0.04 0.04 0.04 0.04 0.04 0.04 0.04 0.04 0.04 0.04 0.04 0.04 0.04 0.04 0.04 0.04 0.04 0.04 0.04 0.04 0.04 0.04 0.04 0.04 0.04 0.04 0.04 0.04 0.04 0.04 0.04 
0.05 0.05 0.05 0.05 0.05 0.05 0.05 0.05 0.05 0.05 0.05 0.05 0.05 0.05 0.05 0.05 0.05 0.05 0.05 0.05 0.05 0.05 0.05 0.05 0.05 0.05 0.05 0.05 0.05 0.05 0.05 0.05 0.05 0.05 0.05 0.05 0.05 0.05 0.05 0.05 0.05 0.05 0.05 0.05 0.05 0.05 0.05 0.05 
0.06 0.06 0.06 0.06 0.06 0.06 0.06 0.06 0.06 0.06 0.06 0.06 0.06 0.06 0.06 0.06 0.06 0.06 0.06 0.06 0.06 0.06 0.06 0.06 0.06 0.06 0.06 0.06 0.06 0.06 0.06 0.06 0.06 0.06 0.06 0.06 0.06 0.06 0.06 0.06 0.06 0.06 0.06 0.06 0.06 0.06 0.06 0.06 
0.07 0.07 0.07 0.07 0.07 0.07 0.07 0.07 0.07 0.07 0.07 0.07 0.07 0.07 0.07 0.07 0.07 0.07 0.07 0.07 0.07 0.07 0.07 0.07 0.07 0.07 0.07 0.07 0.07 0.07 0.07 0.07 0.07 0.07 0.07 0.07 0.07 0.07 0.07 0.07 0.07 0.07 0.07 0.07 0.07 0.07 0.07 0.07 
0.08 0.08 0.08 0.08 0.08 0.08 0.08 0.08 0.08 0.08 0.08 0.08 0.08 0.08 0.08 0.08 0.08 0.08 0.08 0.08 0.08 0.08 0.08 0.08 0.08 0.08 0.08 0.08 0.08 0.08 0.08 0.08 0.08 0.08 0.08 0.08 0.08 0.08 0.08 0.08 0.08 0.08 0.08 0.08 0.08 0.08 0.08 0.08 
0.09 0.09 0.09 0.09 0.09 0.09 0.09 0.09 0.09 0.09 0.09 0.09 0.09 0.09 0.09 0.09 0.09 0.09 0.09 0.09 0.09 0.09 0.09 0.09 0.09 0.09 0.09 0.09 0.09 0.09 0.09 0.09 0.09 0.09 0.09 0.09 0.09 0.09 0.09 0.09 0.09 0.09 0.09 0.09 0.09 0.09 0.09 0.09 
0.1 0.1 0.1 0.1 0.1 0.1 0.1 0.1 0.1 0.1 0.1 0.1 0.1 0.1 0.1 0.1 0.1 0.1 0.1 0.1 0.1 0.1 0.1 0.1 0.1 0.1 0.1 0.1 0.1 0.1 0.1 0.1 0.1 0.1 0.1 0.1 0.1 0.1 0.1 0.1 0.1 0.1 0.1 0.1 0.1 0.1 0.1 0.1 
0.5 0.5 0.5 0.5 0.5 0.5 0.5 0.5 0.5 0.5 0.5 0.5 0.5 0.5 0.5 0.5 0.5 0.5 0.5 0.5 0.5 0.5 0.5 0.5 0.5 0.5 0.5 0.5 0.5 0.5 0.5 0.5 0.5 0.5 0.5 0.5 0.5 0.5 0.5 0.5 0.5 0.5 0.5 0.5 0.5 0.5 0.5 0.5 
1 1 1 1 1 1 1 1 1 1 1 1 1 1 1 1 1 1 1 1 1 1 1 1 1 1 1 1 1 1 1 1 1 1 1 1 1 1 1 1 1 1 1 1 1 1 1 1 
